p cnf 10 20
-3 -4 -6 10 5 8 0
-1 -6 -7 2 8 9 0
-1 -6 -8 10 2 5 0
-10 -6 4 5 7 9 0
-2 -3 -5 -9 1 10 0
-4 2 5 6 7 9 0
-1 -9 10 2 7 8 0
-2 -4 -5 10 6 9 0
-5 1 10 4 6 7 0
-10 -5 -7 1 2 8 0
-1 -10 -2 -4 -9 3 0
-1 -4 -9 2 3 5 0
-4 -5 -6 1 3 7 0
-1 -2 -5 -6 4 8 0
-1 -10 -3 -5 -7 4 0
-3 -6 1 10 4 5 0
-3 -7 -9 1 10 6 0
-10 -5 1 2 7 9 0
-4 -6 3 7 8 9 0
-1 -10 -7 3 4 6 0
